6237 5831 5604 5248 5162 4996 4594 4466 4218 3932 3924 3665 3636 3546 3461 3394 3329 3241 3135 3031 2978 2962 2910 2880 2829 2808 2712 2712 2666 2616 2637 2607 2571 2558 2529 2510 2485 2451 2447 2422 2419 2398 2392 2376 2374 2353 2331 2331 2330 2338 2329 2322 2309 2285 2278 2278 2254 2250 2245 2238 2236 2230 2228 2228 2216 2201 2195 2190 2190 2171 2168 2148 2148 2145 2145 2156 2142 2142 2139 2137 2134 2116 2111 2111 2103 2103 2073 2072 2077 2070 2070 2068 2068 2060 2058 2059 2063 2063 2061 2054 2045 2041 2040 2033 2040 2020 2010 2008 2000 2000 1998 2000 1968 1968 1979 1952 1947 1958 1952 1938 1933 1927 1910 1886 1854 1845 1828 1824 1796 1772 1768 1734 1730 1714 1710 1696 1696 1694 1687 1684 1675 1673 1673 1667 1665 1662 1651 1642 1634 1634 1630 1622 1622 1610 1604 1602 1590 1590 1586 1586 1582 1582 1577 1574 1574 1570 1560 1560 1551 1551 1544 1535 1535 1530 1530 1530 1526 1526 1526 1526 1526 1526 1526 1522 1522 1522 1522 1505 1505 1503 1502 1485 1481 1473 1467 1455 1455 1427 1427 1427 1413 1413 1413 1413 1413 1413 1413 1413 1413 1408 1408 1408 1408 1408 1408 1408 1408 1408 1408 1408 1408 1408 1408 1408 1408 1408 1408 1408 1408 1408 1408 1408 1408 1408 1408 1408 1406 1406 1406 1406 1405 1405 1405 1405 1405 1405 1400 1400 1400 1400 1400 1400 1400 1400 1400 1400 1400 1400 1400 1400 1400 1400 1400 1400 1400 1400 1400 1400 1400 1400 1400 1400 1398 1398 1398 1398 1398 1398 1398 1398 1398 1398 1398 1396 1396 1396 1394 1394 1394 1394 1394 1394 1394 1394 1394 1394 1392 1392 1392 1392 1392 1392 1392 1392 1392 1392 1392 1392 1392 1392 1392 1392 1392 1392 1392 1392 1392 1392 1392 1392 1392 1392 1392 1392 1392 1390 1390 1390 1390 1390 1390 1390 1390 1390 1390 1390 1390 1390 1390 1390 1390 1390 1390 1390 1390 1390 1390 1390 1390 1390 1390 1390 1390 1390 1390 1390 1390 1390 1390 1390 1390 1390 1390 1390 1390 1390 1390 1390 1390 1390 1390 1390 1390 1390 1390 1390 1390 1390 1390 1390 1390 1390 1390 1390 1390 1390 1390 1390 1390 1390 1390 1390 1390 1390 1390 1390 1390 1390 1390 1390 1390 1390 1390 1390 1390 1390 1390 1390 1390 1390 1390 1390 1390 1390 1390 1390 1390 1390 1390 1390 1390 1390 1390 1390 1390 1390 1390 1390 1390 1390 1390 1390 1390 1390 1390 1390 1390 1390 1390 1390 1390 1390 1390 1390 1390 1390 1390 1390 1390 1390 1390 1390 1390 1390 1390 1390 1390 1390 1390 1390 1390 1390 1390 1390 1390 1390 1390 1390 1390 1390 1390 1390 1390 1390 1390 1390 1390 1390 1390 1390 1390 1390 1390 1390 1390 1390 1390 1390 1390 1390 1390 1390 1390 1390 1390 1390 1390 1390 1390 1390 1390 1390 1390 1390 1390 1390 1390 1390 1390 1390 1390 1390 1390 1390 1390 1390 1390 1390 1390 1390 1390 1390 1390 1390 1390 1390 1390 1390 1390 1390 1390 1390 1390 1390 1390 1390 1390 1390 1390 1390 1390 1390 1390 1390 1390 1390 1390 1390 1390 1390 1390 1390 1390 1390 1390 1390 1390 1390 1390 1390 1390 1390 1390 1390 1390 1390 1390 1390 1390 1390 1390 1390 1390 1390 1390 1390 1390 1390 1390 1390 1390 1390 1390 1390 1390 1390 1390 1390 1390 1390 1390 1390 1390 1390 1390 1390 1390 1390 1390 1390 1390 1390 1390 1390 1390 1390 1390 1390 1390 1390 1390 1390 1390 1390 1390 1390 1390 1390 1390 1390 1390 1390 1390 1390 1390 1390 1390 1390 1390 1390 1390 1390 1390 1390 1390 1390 1390 1390 1390 1390 1390 1390 1390 1390 1390 1390 1390 1390 1390 1390 1390 1390 1390 1390 1390 1390 1390 1390 1390 1390 1390 1390 1390 1390 1390 1390 1390 1390 1390 1390 1390 1390 1390 1390 1390 1390 1390 1390 1390 1390 1390 1390 1390 1390 1390 1390 1390 1390 1390 1390 1390 1390 1390 1390 1390 1390 1390 1390 1390 1390 1390 1390 1390 1390 1390 1390 1390 1390 1390 1390 1390 1390 1390 1390 1390 1390 1390 1390 1390 1390 1390 1390 1390 1390 1390 1390 1390 1390 1390 1390 1390 1390 1390 1390 1390 1390 1390 1390 1390 1390 1390 1390 1390 1390 1390 1390 1390 1390 1390 1390 1390 1390 1390 1390 1390 1390 1390 1390 1390 1390 1390 1390 1390 1390 1390 1390 1390 1390 1390 1390 1390 1390 1390 1390 1390 1390 1390 1390 1390 1390 1390 1390 1390 1390 1390 1390 1390 1390 1390 1390 1390 1390 1390 1390 1390 1390 1390 1390 1390 1390 1390 1390 1390 1390 1390 1390 1390 1390 1390 1390 1390 1390 1390 1390 1390 1390 1390 1390 1390 1390 1390 1390 1390 1390 1390 1390 
4240 3912 3734 3386 3162 3034 2611 2527 2325 2032 2016 1758 1668 1574 1485 1449 1359 1251 1163 1096 1036 1022 962 947 896 859 810 766 710 680 660 630 602 583 552 533 506 491 484 464 458 436 424 411 401 388 379 369 361 352 334 328 325 313 305 299 291 290 280 280 264 261 259 248 244 243 238 236 231 231 230 229 220 220 220 216 216 213 192 192 190 182 182 180 180 175 175 173 170 170 168 161 159 154 141 141 136 134 134 123 117 117 113 108 108 89 87 87 69 69 69 49 49 49 45 35 35 31 17 6 3 3 3 0 0 0 0 0 0 0 0 0 0 0 0 0 0 0 0 0 0 0 0 0 0 0 0 0 0 0 0 0 0 0 0 0 0 0 0 0 0 0 0 0 0 0 0 0 0 0 0 0 0 0 0 0 0 0 0 0 0 0 0 0 0 0 0 0 0 0 0 0 0 0 0 0 0 0 0 0 0 0 0 0 0 0 0 0 0 0 0 0 0 0 0 0 0 0 0 0 0 0 0 0 0 0 0 0 0 0 0 0 0 0 0 0 0 0 0 0 0 0 0 0 0 0 0 0 0 0 0 0 0 0 0 0 0 0 0 0 0 0 0 0 0 0 0 0 0 0 0 0 0 0 0 0 0 0 0 0 0 0 0 0 0 0 0 0 0 0 0 0 0 0 0 0 0 0 0 0 0 0 0 0 0 0 0 0 0 0 0 0 0 0 0 0 0 0 0 0 0 0 0 0 0 0 0 0 0 0 0 0 0 0 0 0 0 0 0 0 0 0 0 0 0 0 0 0 0 0 0 0 0 0 0 0 0 0 0 0 0 0 0 0 0 0 0 0 0 0 0 0 0 0 0 0 0 0 0 0 0 0 0 0 0 0 0 0 0 0 0 0 0 0 0 0 0 0 0 0 0 0 0 0 0 0 0 0 0 0 0 0 0 0 0 0 0 0 0 0 0 0 0 0 0 0 0 0 0 0 0 0 0 0 0 0 0 0 0 0 0 0 0 0 0 0 0 0 0 0 0 0 0 0 0 0 0 0 0 0 0 0 0 0 0 0 0 0 0 0 0 0 0 0 0 0 0 0 0 0 0 0 0 0 0 0 0 0 0 0 0 0 0 0 0 0 0 0 0 0 0 0 0 0 0 0 0 0 0 0 0 0 0 0 0 0 0 0 0 0 0 0 0 0 0 0 0 0 0 0 0 0 0 0 0 0 0 0 0 0 0 0 0 0 0 0 0 0 0 0 0 0 0 0 0 0 0 0 0 0 0 0 0 0 0 0 0 0 0 0 0 0 0 0 0 0 0 0 0 0 0 0 0 0 0 0 0 0 0 0 0 0 0 0 0 0 0 0 0 0 0 0 0 0 0 0 0 0 0 0 0 0 0 0 0 0 0 0 0 0 0 0 0 0 0 0 0 0 0 0 0 0 0 0 0 0 0 0 0 0 0 0 0 0 0 0 0 0 0 0 0 0 0 0 0 0 0 0 0 0 0 0 0 0 0 0 0 0 0 0 0 0 0 0 0 0 0 0 0 0 0 0 0 0 0 0 0 0 0 0 0 0 0 0 0 0 0 0 0 0 0 0 0 0 0 0 0 0 0 0 0 0 0 0 0 0 0 0 0 0 0 0 0 0 0 0 0 0 0 0 0 0 0 0 0 0 0 0 0 0 0 0 0 0 0 0 0 0 0 0 0 0 0 0 0 0 0 0 0 0 0 0 0 0 0 0 0 0 0 0 0 0 0 0 0 0 0 0 0 0 0 0 0 0 0 0 0 0 0 0 0 0 0 0 0 0 0 0 0 0 0 0 0 0 0 0 0 0 0 0 0 0 0 0 0 0 0 0 0 0 0 0 0 0 0 0 